(declare-fun var0 () String)
(assert (RegexIn var0 (RegexConcat (RegexUnion (RegexUnion (Str2Reg "mm") (Str2Reg "nn")) (RegexUnion (Str2Reg "o") (Str2Reg "pp"))) (RegexConcat (RegexPlus (RegexStar (Str2Reg "ll"))) (RegexConcat (RegexPlus (RegexUnion (Str2Reg "jj") (Str2Reg "kkk"))) (RegexConcat (RegexUnion (RegexUnion (Str2Reg "ggg") (Str2Reg "hh")) (RegexPlus (Str2Reg "i"))) (RegexConcat (RegexUnion (RegexStar (Str2Reg "ddd")) (RegexUnion (Str2Reg "eee") (Str2Reg "ff"))) (RegexConcat (RegexUnion (RegexStar (Str2Reg "a")) (RegexUnion (Str2Reg "bbb") (Str2Reg "ccc"))) (RegexConcat (RegexPlus (RegexUnion (Str2Reg "88") (Str2Reg "99"))) (RegexConcat (RegexUnion (RegexUnion (Str2Reg "44") (Str2Reg "55")) (RegexUnion (Str2Reg "66") (Str2Reg "77"))) (RegexConcat (RegexPlus (RegexUnion (Str2Reg "222") (Str2Reg "33"))) (RegexStar (RegexUnion (Str2Reg "000") (Str2Reg "1"))))))))))))))
(assert (RegexIn var0 (RegexConcat (RegexUnion (RegexStar (Str2Reg "fff")) (RegexUnion (Str2Reg "ggg") (Str2Reg "h"))) (RegexConcat (RegexPlus (RegexUnion (Str2Reg "ddd") (Str2Reg "eee"))) (RegexConcat (RegexUnion (RegexPlus (Str2Reg "bb")) (RegexStar (Str2Reg "cc"))) (RegexConcat (RegexPlus (RegexStar (Str2Reg "aaa"))) (RegexConcat (RegexPlus (RegexPlus (Str2Reg "999"))) (RegexConcat (RegexPlus (RegexUnion (Str2Reg "7") (Str2Reg "8"))) (RegexConcat (RegexUnion (RegexPlus (Str2Reg "555")) (RegexStar (Str2Reg "66"))) (RegexConcat (RegexStar (RegexStar (Str2Reg "444"))) (RegexConcat (RegexStar (RegexStar (Str2Reg "33"))) (RegexUnion (RegexUnion (Str2Reg "0") (Str2Reg "11")) (RegexStar (Str2Reg "22"))))))))))))))
(check-sat)